(set-option :incremental false)
(set-logic ALL)
(declare-const BAV1 Bool)
(declare-const BAV2 Bool)
(declare-const BAV3 Bool)
(declare-const GEN2 Real)
(declare-const GEN1 Real)
(declare-fun x () Real)
(assert (= BAV1 (and (<= GEN1 x) (< x GEN2))))
(assert (= BAV2 (<= GEN1 x)))
(assert (= BAV3 (< x GEN2)))
(check-sat-assuming ((and (<= GEN1 x) (< x GEN2))))
(get-model)